(set-info :smt-lib-version 2.6)
(set-logic QF_S)
(set-info :source |
Generated by: Joel Day, Thorsten Ehlers, Mitja Kulczynski, Federico Mora, Florin Manea, Dirk Nowotka, Danny Poulsen, Zhengyang Lu
Application: Test WOORPJE
Target solver: WOORPJE
Publications: Day, J. D., Ehlers, T., Kulczynski, M., Manea, F., Nowotka, D., & Poulsen, D. B. (2019). On solving word equations using SAT. In RP 2019
Description: Transoformed and expanded from Track02
|)
(set-info :license "https://creativecommons.org/licenses/by/4.0/")
(set-info :category "random")
(set-info :status unknown)

(declare-fun J () String)
(declare-fun H () String)
(declare-fun I () String)
(declare-fun K () String)
(declare-fun G () String)
(declare-fun L () String)
(declare-fun N () String)
(declare-fun M () String)
(declare-fun P () String)
(assert (= (str.++  H "a" H "a" H H G "aa" H H "a" H "a" H "a" H H G "aa" H H "b" I I "b" L "aaba" N "ba")  (str.++  "aa" H H H H "aa" H H H H H H "aaa" J J K J J J J K J J "b" M "a" M "ab" N N N N "b" P P "baa") ))
(check-sat)

(exit)
